language ESSENCE' 1.0

letting C_FunctionND be
        [[0, 0, 0, 0, 0, 0, 0, 0, 0, 0, 0, 0, 0, 0, 0, 0, 0, 0, 0, 0, 0, 0; int(0..21)],
         [1, 0, 0, 0, 0, 0, 0, 0, 0, 0, 0, 0, 0, 0, 0, 0, 0, 0, 0, 0, 0, 0; int(0..21)],
         [1, 0, 0, 0, 0, 0, 0, 0, 0, 0, 0, 0, 0, 0, 0, 0, 0, 0, 0, 0, 0, 0; int(0..21)],
         [1, 0, 0, 0, 0, 0, 0, 0, 0, 0, 0, 0, 0, 0, 0, 0, 0, 0, 0, 0, 0, 0; int(0..21)],
         [1, 0, 0, 0, 0, 0, 0, 0, 0, 0, 0, 0, 0, 0, 0, 0, 0, 0, 0, 0, 0, 0; int(0..21)],
         [1, 0, 0, 0, 0, 0, 0, 0, 0, 0, 0, 0, 0, 0, 0, 0, 0, 0, 0, 0, 0, 0; int(0..21)],
         [1, 0, 0, 0, 0, 0, 0, 0, 0, 0, 0, 0, 0, 0, 0, 0, 0, 0, 0, 0, 0, 0; int(0..21)],
         [1, 0, 0, 0, 0, 0, 0, 0, 0, 0, 0, 0, 0, 0, 0, 0, 0, 0, 0, 0, 0, 0; int(0..21)],
         [1, 0, 0, 0, 0, 0, 0, 0, 0, 0, 0, 0, 0, 0, 0, 0, 0, 0, 0, 0, 0, 0; int(0..21)],
         [0, 1, 1, 1, 0, 0, 0, 1, 0, 0, 0, 0, 0, 0, 0, 0, 0, 0, 0, 0, 0, 0; int(0..21)],
         [0, 1, 0, 0, 1, 0, 0, 0, 0, 0, 0, 0, 0, 0, 0, 0, 0, 0, 0, 0, 0, 0; int(0..21)],
         [0, 1, 0, 0, 0, 1, 1, 0, 0, 0, 0, 0, 0, 0, 0, 0, 0, 0, 0, 0, 0, 0; int(0..21)],
         [0, 1, 0, 0, 0, 0, 0, 0, 1, 0, 0, 0, 0, 0, 0, 0, 0, 0, 0, 0, 0, 0; int(0..21)],
         [0, 0, 1, 0, 1, 0, 1, 0, 1, 0, 0, 0, 0, 0, 0, 0, 0, 0, 0, 0, 0, 0; int(0..21)],
         [0, 0, 1, 0, 0, 1, 0, 0, 0, 0, 0, 0, 0, 0, 0, 0, 0, 0, 0, 0, 0, 0; int(0..21)],
         [0, 0, 0, 1, 1, 0, 0, 0, 0, 0, 0, 0, 0, 0, 0, 0, 0, 0, 0, 0, 0, 0; int(0..21)],
         [0, 0, 0, 1, 0, 1, 0, 0, 1, 0, 0, 0, 0, 0, 0, 0, 0, 0, 0, 0, 0, 0; int(0..21)],
         [0, 0, 0, 1, 0, 0, 1, 0, 0, 0, 0, 0, 0, 0, 0, 0, 0, 0, 0, 0, 0, 0; int(0..21)],
         [0, 0, 0, 0, 1, 1, 0, 1, 0, 0, 0, 0, 0, 0, 0, 0, 0, 0, 0, 0, 0, 0; int(0..21)],
         [0, 0, 0, 0, 0, 0, 1, 1, 0, 0, 0, 0, 0, 0, 0, 0, 0, 0, 0, 0, 0, 0; int(0..21)],
         [0, 0, 0, 0, 0, 0, 0, 1, 1, 0, 0, 0, 0, 0, 0, 0, 0, 0, 0, 0, 0, 0; int(0..21)],
         [0, 0, 0, 0, 0, 0, 0, 0, 0, 1, 1, 1, 1, 1, 1, 1, 1, 1, 1, 1, 1, 0; int(0..21)];
             int(0..21)]
$ Visualisation for C_FunctionND
$ 0 0 0 0 0 0 0 0 0 0 0 0 0 0 0 0 0 0 0 0 0 0
$ 1 0 0 0 0 0 0 0 0 0 0 0 0 0 0 0 0 0 0 0 0 0
$ 1 0 0 0 0 0 0 0 0 0 0 0 0 0 0 0 0 0 0 0 0 0
$ 1 0 0 0 0 0 0 0 0 0 0 0 0 0 0 0 0 0 0 0 0 0
$ 1 0 0 0 0 0 0 0 0 0 0 0 0 0 0 0 0 0 0 0 0 0
$ 1 0 0 0 0 0 0 0 0 0 0 0 0 0 0 0 0 0 0 0 0 0
$ 1 0 0 0 0 0 0 0 0 0 0 0 0 0 0 0 0 0 0 0 0 0
$ 1 0 0 0 0 0 0 0 0 0 0 0 0 0 0 0 0 0 0 0 0 0
$ 1 0 0 0 0 0 0 0 0 0 0 0 0 0 0 0 0 0 0 0 0 0
$ 0 1 1 1 0 0 0 1 0 0 0 0 0 0 0 0 0 0 0 0 0 0
$ 0 1 0 0 1 0 0 0 0 0 0 0 0 0 0 0 0 0 0 0 0 0
$ 0 1 0 0 0 1 1 0 0 0 0 0 0 0 0 0 0 0 0 0 0 0
$ 0 1 0 0 0 0 0 0 1 0 0 0 0 0 0 0 0 0 0 0 0 0
$ 0 0 1 0 1 0 1 0 1 0 0 0 0 0 0 0 0 0 0 0 0 0
$ 0 0 1 0 0 1 0 0 0 0 0 0 0 0 0 0 0 0 0 0 0 0
$ 0 0 0 1 1 0 0 0 0 0 0 0 0 0 0 0 0 0 0 0 0 0
$ 0 0 0 1 0 1 0 0 1 0 0 0 0 0 0 0 0 0 0 0 0 0
$ 0 0 0 1 0 0 1 0 0 0 0 0 0 0 0 0 0 0 0 0 0 0
$ 0 0 0 0 1 1 0 1 0 0 0 0 0 0 0 0 0 0 0 0 0 0
$ 0 0 0 0 0 0 1 1 0 0 0 0 0 0 0 0 0 0 0 0 0 0
$ 0 0 0 0 0 0 0 1 1 0 0 0 0 0 0 0 0 0 0 0 0 0
$ 0 0 0 0 0 0 0 0 0 1 1 1 1 1 1 1 1 1 1 1 1 0

letting J_FunctionND be
        [[0, 1, 2, 3, 4, 5, 6, 7, 8, 9, 10, 11, 12, 13, 14, 15, 16, 17, 18, 19, 20, 21; int(0..21)],
         [1, 1, 9, 9, 10, 11, 11, 9, 12, 9, 10, 11, 12, 21, 21, 21, 21, 21, 21, 21, 21, 21; int(0..21)],
         [2, 9, 2, 9, 13, 14, 13, 9, 13, 9, 21, 21, 21, 13, 14, 21, 21, 21, 21, 21, 21, 21; int(0..21)],
         [3, 9, 9, 3, 15, 16, 17, 9, 16, 9, 21, 21, 21, 21, 21, 15, 16, 17, 21, 21, 21, 21; int(0..21)],
         [4, 10, 13, 15, 4, 18, 13, 18, 13, 21, 10, 21, 21, 13, 21, 15, 21, 21, 18, 21, 21, 21; int(0..21)],
         [5, 11, 14, 16, 18, 5, 11, 18, 16, 21, 21, 11, 21, 21, 14, 21, 16, 21, 18, 21, 21, 21; int(0..21)],
         [6, 11, 13, 17, 13, 11, 6, 19, 13, 21, 21, 11, 21, 13, 21, 21, 21, 17, 21, 19, 21, 21; int(0..21)],
         [7, 9, 9, 9, 18, 18, 19, 7, 20, 9, 21, 21, 21, 21, 21, 21, 21, 21, 18, 19, 20, 21; int(0..21)],
         [8, 12, 13, 16, 13, 16, 13, 20, 8, 21, 21, 21, 12, 13, 21, 21, 16, 21, 21, 21, 20, 21; int(0..21)],
         [9, 9, 9, 9, 21, 21, 21, 9, 21, 9, 21, 21, 21, 21, 21, 21, 21, 21, 21, 21, 21, 21; int(0..21)],
         [10, 10, 21, 21, 10, 21, 21, 21, 21, 21, 10, 21, 21, 21, 21, 21, 21, 21, 21, 21, 21, 21; int(0..21)],
         [11, 11, 21, 21, 21, 11, 11, 21, 21, 21, 21, 11, 21, 21, 21, 21, 21, 21, 21, 21, 21, 21; int(0..21)],
         [12, 12, 21, 21, 21, 21, 21, 21, 12, 21, 21, 21, 12, 21, 21, 21, 21, 21, 21, 21, 21, 21; int(0..21)],
         [13, 21, 13, 21, 13, 21, 13, 21, 13, 21, 21, 21, 21, 13, 21, 21, 21, 21, 21, 21, 21, 21; int(0..21)],
         [14, 21, 14, 21, 21, 14, 21, 21, 21, 21, 21, 21, 21, 21, 14, 21, 21, 21, 21, 21, 21, 21; int(0..21)],
         [15, 21, 21, 15, 15, 21, 21, 21, 21, 21, 21, 21, 21, 21, 21, 15, 21, 21, 21, 21, 21, 21; int(0..21)],
         [16, 21, 21, 16, 21, 16, 21, 21, 16, 21, 21, 21, 21, 21, 21, 21, 16, 21, 21, 21, 21, 21; int(0..21)],
         [17, 21, 21, 17, 21, 21, 17, 21, 21, 21, 21, 21, 21, 21, 21, 21, 21, 17, 21, 21, 21, 21; int(0..21)],
         [18, 21, 21, 21, 18, 18, 21, 18, 21, 21, 21, 21, 21, 21, 21, 21, 21, 21, 18, 21, 21, 21; int(0..21)],
         [19, 21, 21, 21, 21, 21, 19, 19, 21, 21, 21, 21, 21, 21, 21, 21, 21, 21, 21, 19, 21, 21; int(0..21)],
         [20, 21, 21, 21, 21, 21, 21, 20, 20, 21, 21, 21, 21, 21, 21, 21, 21, 21, 21, 21, 20, 21; int(0..21)],
         [21, 21, 21, 21, 21, 21, 21, 21, 21, 21, 21, 21, 21, 21, 21, 21, 21, 21, 21, 21, 21, 21; int(0..21)];
             int(0..21)]
$ Visualisation for J_FunctionND
$  0  1  2  3  4  5  6  7  8  9 10 11 12 13 14 15 16 17 18 19 20 21
$  1  1  9  9 10 11 11  9 12  9 10 11 12 21 21 21 21 21 21 21 21 21
$  2  9  2  9 13 14 13  9 13  9 21 21 21 13 14 21 21 21 21 21 21 21
$  3  9  9  3 15 16 17  9 16  9 21 21 21 21 21 15 16 17 21 21 21 21
$  4 10 13 15  4 18 13 18 13 21 10 21 21 13 21 15 21 21 18 21 21 21
$  5 11 14 16 18  5 11 18 16 21 21 11 21 21 14 21 16 21 18 21 21 21
$  6 11 13 17 13 11  6 19 13 21 21 11 21 13 21 21 21 17 21 19 21 21
$  7  9  9  9 18 18 19  7 20  9 21 21 21 21 21 21 21 21 18 19 20 21
$  8 12 13 16 13 16 13 20  8 21 21 21 12 13 21 21 16 21 21 21 20 21
$  9  9  9  9 21 21 21  9 21  9 21 21 21 21 21 21 21 21 21 21 21 21
$ 10 10 21 21 10 21 21 21 21 21 10 21 21 21 21 21 21 21 21 21 21 21
$ 11 11 21 21 21 11 11 21 21 21 21 11 21 21 21 21 21 21 21 21 21 21
$ 12 12 21 21 21 21 21 21 12 21 21 21 12 21 21 21 21 21 21 21 21 21
$ 13 21 13 21 13 21 13 21 13 21 21 21 21 13 21 21 21 21 21 21 21 21
$ 14 21 14 21 21 14 21 21 21 21 21 21 21 21 14 21 21 21 21 21 21 21
$ 15 21 21 15 15 21 21 21 21 21 21 21 21 21 21 15 21 21 21 21 21 21
$ 16 21 21 16 21 16 21 21 16 21 21 21 21 21 21 21 16 21 21 21 21 21
$ 17 21 21 17 21 21 17 21 21 21 21 21 21 21 21 21 21 17 21 21 21 21
$ 18 21 21 21 18 18 21 18 21 21 21 21 21 21 21 21 21 21 18 21 21 21
$ 19 21 21 21 21 21 19 19 21 21 21 21 21 21 21 21 21 21 21 19 21 21
$ 20 21 21 21 21 21 21 20 20 21 21 21 21 21 21 21 21 21 21 21 20 21
$ 21 21 21 21 21 21 21 21 21 21 21 21 21 21 21 21 21 21 21 21 21 21

letting M_FunctionND be
        [[0, 0, 0, 0, 0, 0, 0, 0, 0, 0, 0, 0, 0, 0, 0, 0, 0, 0, 0, 0, 0, 0; int(0..21)],
         [0, 1, 0, 0, 0, 0, 0, 0, 0, 1, 1, 1, 1, 0, 0, 0, 0, 0, 0, 0, 0, 1; int(0..21)],
         [0, 0, 2, 0, 0, 0, 0, 0, 0, 2, 0, 0, 0, 2, 2, 0, 0, 0, 0, 0, 0, 2; int(0..21)],
         [0, 0, 0, 3, 0, 0, 0, 0, 0, 3, 0, 0, 0, 0, 0, 3, 3, 3, 0, 0, 0, 3; int(0..21)],
         [0, 0, 0, 0, 4, 0, 0, 0, 0, 0, 4, 0, 0, 4, 0, 4, 0, 0, 4, 0, 0, 4; int(0..21)],
         [0, 0, 0, 0, 0, 5, 0, 0, 0, 0, 0, 5, 0, 0, 5, 0, 5, 0, 5, 0, 0, 5; int(0..21)],
         [0, 0, 0, 0, 0, 0, 6, 0, 0, 0, 0, 6, 0, 6, 0, 0, 0, 6, 0, 6, 0, 6; int(0..21)],
         [0, 0, 0, 0, 0, 0, 0, 7, 0, 7, 0, 0, 0, 0, 0, 0, 0, 0, 7, 7, 7, 7; int(0..21)],
         [0, 0, 0, 0, 0, 0, 0, 0, 8, 0, 0, 0, 8, 8, 0, 0, 8, 0, 0, 0, 8, 8; int(0..21)],
         [0, 1, 2, 3, 0, 0, 0, 7, 0, 9, 1, 1, 1, 2, 2, 3, 3, 3, 7, 7, 7, 9; int(0..21)],
         [0, 1, 0, 0, 4, 0, 0, 0, 0, 1, 10, 1, 1, 4, 0, 4, 0, 0, 4, 0, 0, 10; int(0..21)],
         [0, 1, 0, 0, 0, 5, 6, 0, 0, 1, 1, 11, 1, 6, 5, 0, 5, 6, 5, 6, 0, 11; int(0..21)],
         [0, 1, 0, 0, 0, 0, 0, 0, 8, 1, 1, 1, 12, 8, 0, 0, 8, 0, 0, 0, 8, 12; int(0..21)],
         [0, 0, 2, 0, 4, 0, 6, 0, 8, 2, 4, 6, 8, 13, 2, 4, 8, 6, 4, 6, 8, 13; int(0..21)],
         [0, 0, 2, 0, 0, 5, 0, 0, 0, 2, 0, 5, 0, 2, 14, 0, 5, 0, 5, 0, 0, 14; int(0..21)],
         [0, 0, 0, 3, 4, 0, 0, 0, 0, 3, 4, 0, 0, 4, 0, 15, 3, 3, 4, 0, 0, 15; int(0..21)],
         [0, 0, 0, 3, 0, 5, 0, 0, 8, 3, 0, 5, 8, 8, 5, 3, 16, 3, 5, 0, 8, 16; int(0..21)],
         [0, 0, 0, 3, 0, 0, 6, 0, 0, 3, 0, 6, 0, 6, 0, 3, 3, 17, 0, 6, 0, 17; int(0..21)],
         [0, 0, 0, 0, 4, 5, 0, 7, 0, 7, 4, 5, 0, 4, 5, 4, 5, 0, 18, 7, 7, 18; int(0..21)],
         [0, 0, 0, 0, 0, 0, 6, 7, 0, 7, 0, 6, 0, 6, 0, 0, 0, 6, 7, 19, 7, 19; int(0..21)],
         [0, 0, 0, 0, 0, 0, 0, 7, 8, 7, 0, 0, 8, 8, 0, 0, 8, 0, 7, 7, 20, 20; int(0..21)],
         [0, 1, 2, 3, 4, 5, 6, 7, 8, 9, 10, 11, 12, 13, 14, 15, 16, 17, 18, 19, 20, 21; int(0..21)];
             int(0..21)]
$ Visualisation for M_FunctionND
$  0  0  0  0  0  0  0  0  0  0  0  0  0  0  0  0  0  0  0  0  0  0
$  0  1  0  0  0  0  0  0  0  1  1  1  1  0  0  0  0  0  0  0  0  1
$  0  0  2  0  0  0  0  0  0  2  0  0  0  2  2  0  0  0  0  0  0  2
$  0  0  0  3  0  0  0  0  0  3  0  0  0  0  0  3  3  3  0  0  0  3
$  0  0  0  0  4  0  0  0  0  0  4  0  0  4  0  4  0  0  4  0  0  4
$  0  0  0  0  0  5  0  0  0  0  0  5  0  0  5  0  5  0  5  0  0  5
$  0  0  0  0  0  0  6  0  0  0  0  6  0  6  0  0  0  6  0  6  0  6
$  0  0  0  0  0  0  0  7  0  7  0  0  0  0  0  0  0  0  7  7  7  7
$  0  0  0  0  0  0  0  0  8  0  0  0  8  8  0  0  8  0  0  0  8  8
$  0  1  2  3  0  0  0  7  0  9  1  1  1  2  2  3  3  3  7  7  7  9
$  0  1  0  0  4  0  0  0  0  1 10  1  1  4  0  4  0  0  4  0  0 10
$  0  1  0  0  0  5  6  0  0  1  1 11  1  6  5  0  5  6  5  6  0 11
$  0  1  0  0  0  0  0  0  8  1  1  1 12  8  0  0  8  0  0  0  8 12
$  0  0  2  0  4  0  6  0  8  2  4  6  8 13  2  4  8  6  4  6  8 13
$  0  0  2  0  0  5  0  0  0  2  0  5  0  2 14  0  5  0  5  0  0 14
$  0  0  0  3  4  0  0  0  0  3  4  0  0  4  0 15  3  3  4  0  0 15
$  0  0  0  3  0  5  0  0  8  3  0  5  8  8  5  3 16  3  5  0  8 16
$  0  0  0  3  0  0  6  0  0  3  0  6  0  6  0  3  3 17  0  6  0 17
$  0  0  0  0  4  5  0  7  0  7  4  5  0  4  5  4  5  0 18  7  7 18
$  0  0  0  0  0  0  6  7  0  7  0  6  0  6  0  0  0  6  7 19  7 19
$  0  0  0  0  0  0  0  7  8  7  0  0  8  8  0  0  8  0  7  7 20 20
$  0  1  2  3  4  5  6  7  8  9 10 11 12 13 14 15 16 17 18 19 20 21

letting R_Function1D be [0, 1, 1, 1, 1, 1, 1, 1, 1, 2, 2, 2, 2, 2, 2, 2, 2, 2, 2, 2, 2, 3; int(0..21)]
